% From JaCoP's nonogramRepository/data125.nin
 rows = 25;
 row_rule_len = 5;
 row_rules = array2d(1..rows, 1..row_rule_len, 
[
 0,0,0,0,6,
 0,0,0,0,3,
 0,0,0,0,2,
 0,0,0,0,2,
 0,0,0,0,3,
 0,3,3,3,3,
 3,4,3,4,1,
 2,3,3,3,1,
 3,4,3,4,1,
 0,3,3,3,3,
 0,0,3,3,3,
 0,3,4,4,1,
 0,2,3,3,1,
 0,3,4,4,1,
 0,0,3,3,3,
 0,0,0,3,3,
 0,0,3,4,1,
 0,0,2,3,1,
 0,0,3,4,1,
 0,0,0,3,3,
 0,0,0,0,3,
 0,0,0,3,1,
 0,0,0,2,1,
 0,0,0,3,1,
 0,0,0,0,3
]);

 cols = 20;
 col_rule_len = 8;
 col_rules = array2d(1..cols, 1..col_rule_len, 
[
 0,0,0,0,0,0,0,3,
 0,0,0,0,0,0,0,5,
 0,0,0,0,0,2,2,3,
 0,0,0,0,0,0,1,6,
 0,0,0,0,0,3,2,2,
 0,0,0,1,3,1,1,3,
 0,0,0,0,2,5,3,5,
 0,3,2,2,3,2,2,3,
 0,0,0,0,0,6,7,6,
 1,2,1,2,2,3,2,2,
 1,1,3,1,1,3,1,1,
 0,0,0,0,5,3,5,3,
 0,0,0,2,2,3,2,2,
 0,0,0,0,0,1,7,1,
 0,0,0,0,3,2,2,3,
 0,0,0,0,0,3,1,1,
 0,0,0,0,0,0,5,3,
 0,0,0,0,0,0,2,2,
 0,0,0,0,0,0,1,1,
 0,0,0,0,0,0,0,3
]);

